(declare-fun temp559_1 () (_ BitVec 64))
(declare-fun temp559_2 () (_ BitVec 64))
(declare-fun var87778 () (_ BitVec 64))
(declare-fun k!0 () Bool)
(declare-fun ARGNAME_input_NAMEEND_DIM () (_ BitVec 64))
(declare-fun temp559_3 () (_ BitVec 64))
(declare-fun var3216467 () (_ BitVec 64))
(declare-fun temp559_4 () (_ BitVec 64))
(declare-fun temp559_5 () (_ BitVec 64))
(declare-fun var3879741 () (_ BitVec 64))
(declare-fun temp559_6 () (_ BitVec 64))
(declare-fun var3945277 () (_ BitVec 64))
(declare-fun temp559_7 () (_ BitVec 64))
(declare-fun ARGNAME_keepdim_NAMEEND () (_ BitVec 64))
(declare-fun temp559_8 () (_ BitVec 64))
(declare-fun var4535101 () (_ BitVec 64))
(declare-fun temp559_9 () (_ BitVec 64))
(declare-fun var4600637 () (_ BitVec 64))
(declare-fun temp559_10 () (_ BitVec 64))
(declare-fun var4666173 () (_ BitVec 64))
(declare-fun temp559_11 () (_ BitVec 64))
(declare-fun var4797245 () (_ BitVec 64))
(declare-fun temp559_13 () (_ BitVec 64))
(declare-fun temp559_12 () (_ BitVec 64))
(declare-fun temp559_14 () (_ BitVec 64))
(declare-fun var4862781 () (_ BitVec 64))
(assert (= temp559_1 #x0000000000000002))
(assert (= var87778
   (ite (= ARGNAME_input_NAMEEND_DIM temp559_1)
        #x0000000000000001
        #x0000000000000000)))
(assert (= temp559_2 #x0000000000000001))
(assert (= var87778 temp559_2))
(assert (= temp559_3 #x0000000000000002))
(assert (= var3216467
   (ite (bvslt ARGNAME_input_NAMEEND_DIM temp559_3)
        #x0000000000000001
        #x0000000000000000)))
(assert (= temp559_4 #x0000000000000000))
(assert (= var3216467 temp559_4))
(assert (= temp559_5 #x0000000000000000))
(assert (= var3879741 temp559_5))
(assert (= temp559_6 #x0000000000000001))
(assert (= var3945277 temp559_6))
(assert (= temp559_7 #x0000000000000000))
(assert (= ARGNAME_keepdim_NAMEEND temp559_7))
(assert (= temp559_8 #x0000000000000000))
(assert (= var4535101 temp559_8))
(assert (= temp559_9 #x0000000000000001))
(assert (= var4600637 temp559_9))
(assert (= temp559_10 #x0000000000000001))
(assert (= var4666173 temp559_10))
(assert (= temp559_11 #x0000000000000000))
(assert (= var4797245 temp559_11))
(assert (= temp559_13 #x0000000000000001))
(assert (= temp559_12 temp559_13))
(assert (= temp559_14 #x0000000000000001))
(assert (= var4862781 temp559_14))
(model-add temp559_1 () (_ BitVec 64) #x0000000000000002)
(model-add temp559_2 () (_ BitVec 64) #x0000000000000001)
(model-add var87778 () (_ BitVec 64) #x0000000000000001)
(model-del k!0)
(model-add ARGNAME_input_NAMEEND_DIM
           ()
           (_ BitVec 64)
           (ite k!0 #x0000000000000002 (bvnot #x0000000000000002)))






